4 
5  07 37 52 
6  07 14 22 30 37 45 52 
7  00 07 15 22 30 37 45 52 
8  00 07 15 22 30 37 45 52 
9  00 07 15 22 30 37 45 52 
10  00 07 15 22 30 37 45 52 
11  00 07 15 22 30 37 45 52 
12  00 07 15 22 30 37 45 52 
13  00 07 15 22 30 37 45 52 
14  00 07 15 22 30 37 45 52 
15  00 07 15 22 30 37 45 52 
16  00 07 15 22 30 37 45 52 
17  00 07 15 22 30 37 45 52 
18  00 07 15 22 30 37 45 52 
19  00 07 15 22 30 37 45 52 
20  00 07 15 22 33 48 
21  03 18 33 48 
22  02 17 28 43 58 
23  13 28 
0 
